(declare-const n Int)
(declare-const y Int)
(declare-const x Int)
(declare-const i Int)
(assert (exists ((|y'?1| Int) (|x'?2| Int) (|i'?3| Int) (havoc?4 Int))
         (and (<= (- i) 0) (<= (+ (- n) 1) 0) (= (+ x (- y)) 0)
                (<= (+ (- n) i 1) 0) (= (+ x (- y)) 0)
                (or (<= (+ havoc?4 1) 0) (<= (+ (- havoc?4) 1) 0))
                (or (<= (+ havoc?4 x (- y) 1) 0)
                      (<= (+ (- havoc?4) (- x) y 1) 0))
                (= (+ |y'?1| (- havoc?4)) 0)
                (= (+ |x'?2| (- havoc?4) (- x) y) 0)
                (= (+ |i'?3| (- i) -1) 0))))
(check-sat)
